423 5
10 10 10 10 10 

0 0 0 0 0 0 4 2 14 26 38 
0 0 0 0 0 0 5 3 5 6 7 9 
10 1 0 0 0 0 2 8 4 
5 5 0 0 0 0 3 12 11 10 
6 6 0 0 0 0 3 12 11 10 
5 4 0 0 0 0 2 11 8 
6 5 0 0 0 0 1 8 
5 8 0 0 0 0 2 10 420 
2 5 0 0 0 0 1 10 
10 4 0 0 0 0 1 13 
1 4 0 0 0 0 1 13 
8 8 0 0 0 0 1 13 
0 0 0 0 0 0 1 50 
0 0 0 0 0 0 5 15 16 17 18 24 
7 1 0 0 0 0 3 22 21 19 
4 6 0 0 0 0 3 23 22 20 
3 8 0 0 0 0 3 22 21 20 
2 4 0 0 0 0 2 21 20 
7 7 0 0 0 0 1 20 
6 3 0 0 0 0 1 25 
8 2 0 0 0 0 1 25 
5 7 0 0 0 0 1 25 
9 6 0 0 0 0 2 25 259 
6 6 0 0 0 0 1 25 
0 0 0 0 0 0 1 50 
0 0 0 0 0 0 6 27 28 30 31 36 242 
3 0 0 1 0 0 2 35 29 
2 0 0 9 0 0 2 34 32 
1 0 0 5 0 0 1 32 
2 0 0 6 0 0 1 33 
3 0 0 5 0 0 1 33 
6 0 0 3 0 0 1 37 
4 0 0 9 0 0 1 37 
4 0 0 4 0 0 1 37 
2 0 0 3 0 0 1 37 
4 0 0 5 0 0 1 37 
0 0 0 0 0 0 1 50 
0 0 0 0 0 0 5 39 40 41 47 48 
7 0 1 0 0 0 5 46 44 43 42 106 
1 0 10 0 0 0 3 45 44 43 
3 0 6 0 0 0 2 44 43 
6 0 4 0 0 0 1 45 
9 0 7 0 0 0 1 49 
9 0 5 0 0 0 1 49 
9 0 7 0 0 0 1 49 
3 0 3 0 0 0 1 49 
8 0 4 0 0 0 1 49 
1 0 3 0 0 0 1 49 
0 0 0 0 0 0 1 50 
0 0 0 0 0 0 4 51 93 135 147 
0 0 0 0 0 0 6 52 56 57 59 63 66 
8 0 2 1 1 1 3 60 55 53 
6 0 8 3 7 6 4 74 68 61 54 
5 0 6 5 2 4 8 91 84 76 75 71 69 65 58 
10 0 4 6 3 7 9 91 79 77 76 75 69 67 65 62 
8 0 3 3 6 3 4 79 71 64 60 
8 0 3 9 1 3 8 84 78 76 75 70 68 65 64 
4 0 8 6 6 4 6 90 79 78 77 70 64 
3 0 6 7 6 7 6 84 81 75 71 68 67 
2 0 7 7 5 5 6 81 77 74 68 65 414 
3 0 3 6 5 4 5 90 84 83 78 67 
8 0 3 2 4 3 3 90 89 68 
4 0 6 4 4 5 3 89 76 72 
4 0 4 7 2 6 2 83 67 
6 0 5 7 5 9 3 90 89 73 
1 0 3 4 5 7 3 84 80 78 
2 0 6 6 5 4 2 89 72 
8 0 10 6 9 7 2 83 72 
10 0 5 7 5 6 2 90 72 
8 0 7 7 3 5 2 89 73 
5 0 5 4 4 2 4 87 83 82 80 
7 0 6 4 7 2 1 73 
10 0 6 5 6 6 3 87 82 80 
2 0 10 4 4 6 2 80 76 
9 0 3 6 3 8 4 90 88 86 85 
5 0 4 6 8 7 3 88 86 83 
4 0 4 4 4 4 3 89 87 83 
10 0 5 6 6 7 2 85 81 
7 0 1 4 3 6 1 81 
9 0 3 3 7 3 2 88 86 
2 0 7 5 5 7 2 89 87 
5 0 5 5 8 4 1 85 
9 0 4 5 4 4 1 85 
3 0 2 3 8 9 1 86 
9 0 4 2 5 4 1 92 
1 0 5 7 10 5 1 92 
6 0 6 6 3 3 1 92 
8 0 4 2 4 4 1 92 
6 0 3 7 8 2 1 92 
8 0 7 7 5 4 1 92 
6 0 7 2 4 7 1 92 
0 0 0 0 0 0 1 423 
0 0 0 0 0 0 3 94 97 100 
9 1 1 1 0 2 5 103 102 98 96 95 
2 7 2 5 0 4 2 104 99 
9 4 4 5 0 4 5 133 110 105 104 101 
10 2 3 8 0 4 4 110 107 105 101 
3 9 2 5 0 4 8 122 113 112 110 109 108 107 106 
4 7 8 5 0 5 4 133 110 105 101 
6 4 5 4 0 4 3 106 103 102 
2 2 8 5 0 2 9 122 118 116 114 113 112 111 108 106 
6 7 3 5 0 8 3 122 115 104 
6 5 4 7 0 5 6 118 116 114 113 112 108 
9 7 5 4 0 5 4 116 114 111 108 
5 2 2 3 0 4 4 121 118 116 115 
9 7 2 8 0 6 3 121 117 115 
3 9 4 3 0 7 3 133 121 111 
4 5 2 6 0 7 3 127 119 117 
1 5 9 7 0 7 3 118 116 114 
8 5 2 5 0 3 2 121 115 
10 3 8 7 0 7 3 132 126 119 
1 10 9 5 0 5 3 132 127 119 
5 3 5 6 0 10 3 132 126 119 
6 7 7 6 0 3 3 132 126 120 
10 2 6 2 0 6 2 132 119 
10 8 4 4 0 9 4 132 130 126 124 
4 3 7 5 0 5 3 131 126 123 
7 3 4 7 0 3 2 124 123 
10 3 7 6 0 6 2 120 377 
2 7 2 6 0 4 3 130 125 124 
3 4 6 6 0 3 3 130 127 125 
2 3 7 10 0 5 1 123 
6 6 5 3 0 4 4 132 130 129 128 
9 4 6 4 0 4 2 131 128 
7 4 8 2 0 5 2 129 128 
7 6 3 2 0 5 2 129 128 
6 4 2 5 0 3 1 131 
8 4 6 4 0 8 1 134 
9 6 4 4 0 3 1 134 
1 4 10 6 0 4 1 134 
3 3 3 5 0 5 1 134 
2 7 9 4 0 8 1 134 
5 8 6 5 0 4 1 134 
0 0 0 0 0 0 1 423 
0 0 0 0 0 0 3 136 137 140 
8 1 0 0 0 0 5 145 144 143 142 138 
7 6 0 0 0 0 3 143 139 138 
1 2 0 0 0 0 1 141 
5 3 0 0 0 0 1 142 
9 8 0 0 0 0 1 141 
2 5 0 0 0 0 1 146 
10 5 0 0 0 0 1 146 
8 4 0 0 0 0 1 146 
8 7 0 0 0 0 2 146 258 
10 9 0 0 0 0 1 146 
0 0 0 0 0 0 4 189 221 253 265 
0 0 0 0 0 0 5 148 151 153 154 157 
9 2 0 2 1 1 3 156 152 149 
8 5 0 2 7 4 2 158 150 
1 3 0 7 5 5 5 187 162 161 159 155 
2 4 0 6 4 3 4 187 162 161 155 
7 7 0 6 4 4 9 187 176 174 171 167 164 163 162 161 
4 8 0 3 5 5 7 176 175 173 168 167 160 156 
1 4 0 5 4 5 8 176 171 168 167 163 162 159 370 
2 10 0 7 3 5 10 176 175 174 173 171 169 168 167 165 160 
4 5 0 6 4 8 2 169 158 
6 8 0 7 5 6 5 175 174 169 168 161 
7 3 0 5 5 7 4 174 171 165 161 
10 3 0 4 2 9 4 175 173 169 166 
5 5 0 5 6 4 4 181 180 177 166 
10 3 0 5 4 4 4 181 180 177 170 
8 5 0 7 7 5 2 173 166 
9 7 0 3 7 5 2 181 165 
7 2 0 3 6 6 3 178 175 169 
4 5 0 3 5 6 3 186 180 170 
7 4 0 2 5 5 2 186 170 
10 5 0 6 5 4 2 186 170 
9 2 0 4 3 4 2 180 170 
10 6 0 4 6 3 4 186 185 180 179 
7 7 0 6 6 4 1 172 
2 8 0 3 4 6 4 186 185 184 180 
9 4 0 5 5 1 3 185 179 178 
3 2 0 7 3 5 3 185 181 178 
4 5 0 3 5 8 3 180 179 178 
9 2 0 10 6 5 2 184 177 
8 4 0 6 2 5 1 177 
5 8 0 4 6 5 4 186 185 183 182 
10 3 0 4 6 8 2 183 182 
6 8 0 6 4 3 2 184 182 
6 6 0 3 8 7 2 183 182 
10 3 0 7 5 6 1 184 
1 6 0 4 6 5 1 188 
7 6 0 4 10 6 1 188 
4 4 0 8 5 3 1 188 
5 4 0 8 5 3 1 188 
8 6 0 6 3 7 1 188 
7 8 0 4 8 5 1 188 
0 0 0 0 0 0 1 423 
0 0 0 0 0 0 8 190 193 195 197 199 217 218 219 
3 0 1 1 1 0 4 211 203 192 191 
3 0 4 4 10 0 3 210 204 194 
1 0 3 4 2 0 4 214 213 206 196 
3 0 5 9 4 0 4 216 212 206 196 
5 0 4 4 4 0 2 206 196 
10 0 8 5 5 0 5 212 211 207 206 200 
6 0 9 3 7 0 3 207 202 198 
4 0 8 4 6 0 5 215 212 209 206 203 
9 0 5 4 3 0 1 200 
2 0 2 3 8 0 3 213 211 352 
3 0 5 7 4 0 1 201 
3 0 5 5 7 0 1 205 
10 0 5 6 4 0 1 208 
7 0 10 8 7 0 1 210 
4 0 3 5 6 0 1 209 
7 0 5 2 2 0 1 220 
10 0 4 4 2 0 1 220 
9 0 6 5 4 0 1 220 
9 0 5 6 5 0 1 220 
4 0 4 3 7 0 1 220 
8 0 8 5 6 0 1 220 
4 0 5 3 2 0 1 220 
8 0 2 7 7 0 1 220 
7 0 8 6 4 0 1 220 
4 0 4 7 5 0 1 220 
10 0 4 7 6 0 1 220 
1 0 7 7 7 0 1 220 
4 0 3 2 3 0 1 220 
7 0 3 8 6 0 1 220 
1 0 5 6 6 0 1 220 
0 0 0 0 0 0 1 423 
0 0 0 0 0 0 6 222 223 224 225 226 233 
8 1 2 0 1 0 5 240 238 229 228 227 
7 2 2 0 6 0 5 238 236 235 229 227 
7 6 2 0 6 0 4 240 235 229 227 
2 5 1 0 7 0 4 240 239 228 227 
4 6 3 0 4 0 3 240 239 228 
3 1 4 0 9 0 3 234 232 231 
3 5 3 0 4 0 3 236 235 234 
7 5 5 0 2 0 1 230 
4 5 2 0 4 0 3 241 239 237 
5 6 7 0 4 0 2 241 237 
7 4 10 0 4 0 2 241 237 
1 3 4 0 3 0 2 241 237 
7 2 10 0 4 0 1 237 
8 3 3 0 10 0 1 237 
1 7 4 0 4 0 1 237 
9 3 6 0 3 0 5 251 250 247 243 242 
10 2 7 0 2 0 3 250 243 242 
6 8 4 0 4 0 2 250 242 
8 4 4 0 10 0 2 247 241 
5 8 4 0 3 0 4 251 250 249 248 
1 6 6 0 7 0 2 249 244 
1 7 8 0 4 0 2 249 246 
7 6 7 0 4 0 1 245 
10 10 4 0 7 0 1 248 
6 5 5 0 4 0 1 248 
5 5 5 0 6 0 1 249 
8 6 10 0 7 0 1 252 
7 8 5 0 3 0 1 252 
5 6 5 0 8 0 1 252 
6 5 8 0 6 0 1 252 
0 0 0 0 0 0 1 423 
0 0 0 0 0 0 3 254 255 257 
9 0 0 1 0 0 3 263 258 256 
5 0 0 7 0 0 4 263 262 260 259 
5 0 0 5 0 0 3 261 260 259 
10 0 0 9 0 0 3 262 260 259 
9 0 0 6 0 0 1 261 
8 0 0 4 0 0 1 264 
10 0 0 5 0 0 1 264 
4 0 0 4 0 0 1 264 
4 0 0 4 0 0 1 264 
4 0 0 5 0 0 1 264 
0 0 0 0 0 0 4 297 319 341 363 
0 0 0 0 0 0 6 266 267 268 269 270 295 
9 1 0 1 0 1 5 289 279 277 272 271 
10 5 0 4 0 2 3 273 272 271 
7 8 0 1 0 9 3 277 272 271 
3 5 0 6 0 6 3 281 273 271 
9 5 0 2 0 5 4 288 281 278 273 
7 6 0 5 0 10 3 278 275 274 
3 2 0 3 0 8 2 281 276 
6 4 0 7 0 9 2 279 277 
3 6 0 4 0 8 2 282 280 
6 6 0 6 0 5 2 282 280 
9 7 0 4 0 6 2 282 280 
2 7 0 8 0 6 1 280 
6 4 0 8 0 3 1 280 
8 1 0 6 0 3 1 280 
2 3 0 8 0 4 6 294 293 292 287 286 283 
7 5 0 4 0 4 3 292 290 283 
5 5 0 6 0 4 3 293 292 290 
1 6 0 4 0 4 1 284 
8 6 0 8 0 2 1 285 
9 5 0 4 0 2 1 291 
1 5 0 5 0 3 1 290 
5 5 0 5 0 3 1 290 
6 6 0 5 0 8 1 293 
4 5 0 5 0 3 1 292 
5 7 0 5 0 3 1 296 
1 6 0 6 0 4 1 296 
2 4 0 7 0 9 1 296 
3 7 0 6 0 4 1 296 
10 6 0 3 0 5 1 296 
7 2 0 4 0 7 1 296 
0 0 0 0 0 0 1 423 
0 0 0 0 0 0 6 298 299 300 302 303 306 
4 0 3 1 0 0 3 317 305 301 
6 0 3 5 0 0 4 314 309 305 304 
9 0 6 4 0 0 5 316 314 312 308 305 
4 0 4 5 0 0 3 316 314 304 
6 0 4 5 0 0 2 315 304 
4 0 5 3 0 0 2 314 305 
6 0 4 7 0 0 4 313 312 308 307 
1 0 8 3 0 0 4 315 313 310 307 
4 0 4 7 0 0 2 314 309 
10 0 4 6 0 0 1 311 
3 0 5 8 0 0 1 310 
7 0 4 5 0 0 1 312 
2 0 7 4 0 0 1 318 
7 0 10 6 0 0 1 318 
3 0 4 6 0 0 1 318 
3 0 3 3 0 0 1 318 
2 0 6 6 0 0 1 318 
6 0 7 3 0 0 1 318 
6 0 4 10 0 0 1 318 
2 0 5 3 0 0 1 318 
0 0 0 0 0 0 1 423 
0 0 0 0 0 0 9 320 321 322 323 324 325 327 329 330 
8 1 1 0 0 0 2 332 326 
4 4 4 0 0 0 2 332 326 
3 3 7 0 0 0 3 334 332 331 
10 3 6 0 0 0 3 334 332 331 
5 3 3 0 0 0 2 332 328 
3 5 5 0 0 0 1 326 
6 4 6 0 0 0 3 338 334 331 
3 5 5 0 0 0 3 338 334 331 
5 7 4 0 0 0 3 338 336 331 
8 3 5 0 0 0 3 338 336 331 
5 3 8 0 0 0 3 338 336 333 
8 6 8 0 0 0 2 339 333 
7 7 3 0 0 0 3 338 336 335 
10 9 6 0 0 0 2 337 335 
6 6 8 0 0 0 1 336 
1 5 4 0 0 0 1 340 
7 6 4 0 0 0 1 340 
8 6 7 0 0 0 1 340 
10 5 2 0 0 0 1 340 
3 9 4 0 0 0 1 340 
0 0 0 0 0 0 1 423 
0 0 0 0 0 0 8 342 343 344 346 347 348 349 352 
4 0 1 0 0 1 3 361 353 345 
5 0 4 0 0 6 6 361 360 358 355 353 351 
7 0 6 0 0 4 5 361 356 355 353 350 
5 0 2 0 0 5 4 360 355 351 350 
4 0 6 0 0 6 5 360 359 358 355 353 
1 0 6 0 0 8 4 360 358 355 351 
4 0 6 0 0 4 3 361 354 350 
2 0 4 0 0 3 4 359 358 355 354 
8 0 6 0 0 3 3 359 358 357 
3 0 2 0 0 5 2 359 354 
5 0 8 0 0 7 2 358 357 
6 0 3 0 0 6 1 354 
8 0 6 0 0 6 1 357 
6 0 8 0 0 7 1 357 
8 0 4 0 0 2 1 357 
1 0 3 0 0 5 1 362 
8 0 9 0 0 4 1 362 
2 0 7 0 0 5 1 362 
8 0 2 0 0 6 1 362 
2 0 7 0 0 7 1 362 
0 0 0 0 0 0 1 423 
0 0 0 0 0 0 5 364 365 366 367 368 
1 0 0 0 0 1 2 370 369 
6 0 0 0 0 6 2 370 369 
6 0 0 0 0 6 2 370 369 
5 0 0 0 0 6 2 370 369 
10 0 0 0 0 10 2 372 369 
8 0 0 0 0 7 2 373 371 
4 0 0 0 0 2 2 372 371 
10 0 0 0 0 4 1 374 
7 0 0 0 0 3 1 374 
2 0 0 0 0 5 1 374 
0 0 0 0 0 0 4 375 387 399 411 
0 0 0 0 0 0 5 376 377 378 384 385 
4 1 0 0 0 0 3 383 380 379 
5 4 0 0 0 0 3 383 382 380 
1 6 0 0 0 0 2 382 380 
10 10 0 0 0 0 2 382 381 
5 4 0 0 0 0 1 381 
5 5 0 0 0 0 1 386 
5 7 0 0 0 0 1 386 
10 4 0 0 0 0 1 386 
3 3 0 0 0 0 1 386 
10 6 0 0 0 0 1 386 
0 0 0 0 0 0 1 423 
0 0 0 0 0 0 5 388 389 390 392 397 
5 1 0 0 0 0 3 396 394 391 
8 5 0 0 0 0 3 396 395 393 
1 9 0 0 0 0 2 395 393 
1 3 0 0 0 0 1 393 
7 5 0 0 0 0 1 394 
9 6 0 0 0 0 1 398 
8 4 0 0 0 0 1 398 
8 4 0 0 0 0 1 398 
4 6 0 0 0 0 1 398 
7 7 0 0 0 0 1 398 
0 0 0 0 0 0 1 423 
0 0 0 0 0 0 4 400 401 402 403 
2 0 0 1 0 0 3 409 406 404 
1 0 0 10 0 0 3 408 407 405 
7 0 0 4 0 0 3 408 407 405 
2 0 0 7 0 0 3 408 407 405 
6 0 0 4 0 0 2 408 407 
2 0 0 4 0 0 1 409 
3 0 0 6 0 0 1 407 
2 0 0 6 0 0 1 410 
4 0 0 6 0 0 1 410 
9 0 0 2 0 0 1 410 
0 0 0 0 0 0 1 423 
0 0 0 0 0 0 6 412 413 414 416 420 421 
9 1 0 0 0 0 2 418 415 
8 4 0 0 0 0 2 418 415 
6 6 0 0 0 0 1 415 
8 4 0 0 0 0 1 417 
5 4 0 0 0 0 1 419 
2 6 0 0 0 0 1 422 
10 5 0 0 0 0 1 422 
4 8 0 0 0 0 1 422 
6 6 0 0 0 0 1 422 
2 6 0 0 0 0 1 422 
0 0 0 0 0 0 1 423 
0 0 0 0 0 0 0 
